136087
0
75
1
2
3
4
6
7
8
5
20
19
31
30
29
28
33
32
43
42
54
53
52
51
66
65
56
55
49
50
48
44
45
46
47
69
68
67
70
26
27
10
9
12
11
17
18
37
36
35
34
40
41
60
59
58
57
63
64
71
72
73
61
62
38
39
13
14
15
16
74
23
22
21
25
24
